c File: data_files/evolved_graphs/g3718.col
c
c Auto generated graph
c
p edge 100 1175
e 1 5
e 1 13
e 1 17
e 1 23
e 1 26
e 1 29
e 1 31
e 1 34
e 1 37
e 1 38
e 1 39
e 1 40
e 1 41
e 1 44
e 1 52
e 1 59
e 1 60
e 1 61
e 1 62
e 1 63
e 1 64
e 1 66
e 1 67
e 1 68
e 1 69
e 1 73
e 1 74
e 1 75
e 1 77
e 1 79
e 1 87
e 1 88
e 1 95
e 1 99
e 1 100
e 2 11
e 2 12
e 2 15
e 2 27
e 2 28
e 2 36
e 2 40
e 2 42
e 2 43
e 2 47
e 2 51
e 2 53
e 2 56
e 2 60
e 2 62
e 2 79
e 2 82
e 2 84
e 2 88
e 2 93
e 3 8
e 3 9
e 3 12
e 3 27
e 3 28
e 3 32
e 3 34
e 3 35
e 3 39
e 3 42
e 3 58
e 3 62
e 3 63
e 3 64
e 3 65
e 3 66
e 3 70
e 3 74
e 3 76
e 3 80
e 3 84
e 3 99
e 4 6
e 4 10
e 4 21
e 4 22
e 4 34
e 4 43
e 4 52
e 4 53
e 4 57
e 4 58
e 4 59
e 4 60
e 4 62
e 4 63
e 4 65
e 4 66
e 4 73
e 4 74
e 4 77
e 4 78
e 4 86
e 4 87
e 4 89
e 4 97
e 5 7
e 5 12
e 5 14
e 5 16
e 5 27
e 5 35
e 5 37
e 5 41
e 5 51
e 5 54
e 5 56
e 5 59
e 5 60
e 5 61
e 5 62
e 5 64
e 5 75
e 5 76
e 5 79
e 5 82
e 5 86
e 5 87
e 5 92
e 5 100
e 6 8
e 6 9
e 6 17
e 6 27
e 6 28
e 6 29
e 6 34
e 6 38
e 6 39
e 6 41
e 6 42
e 6 44
e 6 49
e 6 51
e 6 52
e 6 54
e 6 56
e 6 57
e 6 59
e 6 60
e 6 62
e 6 63
e 6 64
e 6 68
e 6 69
e 6 74
e 6 76
e 6 77
e 6 78
e 6 79
e 6 80
e 6 86
e 6 87
e 6 88
e 6 91
e 6 96
e 6 98
e 7 14
e 7 15
e 7 19
e 7 22
e 7 25
e 7 30
e 7 33
e 7 38
e 7 39
e 7 43
e 7 46
e 7 49
e 7 51
e 7 55
e 7 59
e 7 60
e 7 70
e 7 71
e 7 72
e 7 74
e 7 91
e 8 14
e 8 28
e 8 32
e 8 34
e 8 36
e 8 37
e 8 38
e 8 39
e 8 45
e 8 47
e 8 51
e 8 60
e 8 62
e 8 63
e 8 64
e 8 66
e 8 67
e 8 68
e 8 70
e 8 74
e 9 13
e 9 14
e 9 18
e 9 26
e 9 28
e 9 31
e 9 44
e 9 46
e 9 48
e 9 53
e 9 54
e 9 55
e 9 57
e 9 59
e 9 61
e 9 62
e 9 63
e 9 64
e 9 65
e 9 67
e 9 68
e 9 69
e 9 70
e 9 72
e 9 73
e 9 74
e 9 91
e 10 13
e 10 22
e 10 25
e 10 29
e 10 33
e 10 40
e 10 43
e 10 44
e 10 45
e 10 47
e 10 48
e 10 52
e 10 54
e 10 58
e 10 60
e 10 61
e 10 62
e 10 63
e 10 64
e 10 65
e 10 69
e 10 72
e 10 73
e 10 74
e 10 81
e 11 12
e 11 13
e 11 14
e 11 27
e 11 28
e 11 34
e 11 39
e 11 41
e 11 43
e 11 44
e 11 46
e 11 55
e 11 57
e 11 60
e 11 62
e 11 64
e 11 66
e 11 67
e 11 71
e 11 72
e 11 73
e 11 75
e 11 91
e 12 14
e 12 16
e 12 18
e 12 26
e 12 29
e 12 30
e 12 32
e 12 34
e 12 40
e 12 41
e 12 42
e 12 44
e 12 45
e 12 46
e 12 47
e 12 53
e 12 58
e 12 59
e 12 60
e 12 62
e 12 64
e 12 65
e 12 66
e 12 71
e 12 72
e 12 74
e 12 75
e 12 100
e 13 15
e 13 16
e 13 23
e 13 27
e 13 29
e 13 30
e 13 35
e 13 38
e 13 40
e 13 41
e 13 42
e 13 45
e 13 46
e 13 48
e 13 51
e 13 52
e 13 53
e 13 58
e 13 60
e 13 62
e 13 65
e 13 66
e 13 67
e 13 68
e 13 71
e 13 72
e 13 74
e 13 95
e 13 98
e 14 16
e 14 19
e 14 24
e 14 43
e 14 45
e 14 53
e 14 54
e 14 56
e 14 59
e 14 60
e 14 65
e 14 66
e 14 71
e 14 72
e 14 73
e 14 74
e 14 88
e 14 92
e 15 21
e 15 25
e 15 31
e 15 33
e 15 37
e 15 41
e 15 48
e 15 57
e 15 58
e 15 60
e 15 61
e 15 62
e 15 63
e 15 65
e 15 66
e 15 67
e 15 68
e 15 69
e 15 71
e 15 72
e 15 73
e 15 74
e 15 84
e 16 23
e 16 25
e 16 26
e 16 30
e 16 31
e 16 41
e 16 44
e 16 46
e 16 48
e 16 55
e 16 56
e 16 62
e 16 63
e 16 65
e 16 69
e 16 71
e 16 72
e 16 73
e 17 26
e 17 27
e 17 31
e 17 34
e 17 36
e 17 38
e 17 39
e 17 40
e 17 42
e 17 43
e 17 44
e 17 48
e 17 52
e 17 53
e 17 54
e 17 55
e 17 57
e 17 59
e 17 61
e 17 62
e 17 65
e 17 69
e 17 71
e 17 73
e 17 77
e 17 85
e 17 87
e 18 24
e 18 32
e 18 33
e 18 48
e 18 52
e 18 55
e 18 57
e 18 58
e 18 61
e 18 62
e 18 64
e 18 67
e 18 68
e 18 69
e 19 24
e 19 25
e 19 26
e 19 27
e 19 33
e 19 37
e 19 39
e 19 44
e 19 45
e 19 49
e 19 54
e 19 55
e 19 56
e 19 59
e 19 60
e 19 61
e 19 64
e 19 65
e 19 66
e 19 68
e 19 69
e 19 70
e 19 72
e 19 73
e 19 74
e 19 89
e 20 21
e 20 25
e 20 26
e 20 27
e 20 32
e 20 40
e 20 43
e 20 50
e 20 53
e 20 55
e 20 56
e 20 57
e 20 59
e 20 60
e 20 62
e 20 63
e 20 64
e 20 66
e 20 68
e 20 70
e 20 72
e 20 74
e 21 22
e 21 28
e 21 29
e 21 35
e 21 36
e 21 37
e 21 45
e 21 53
e 21 55
e 21 60
e 21 61
e 21 62
e 21 65
e 21 67
e 21 69
e 21 70
e 21 72
e 21 74
e 21 90
e 21 93
e 22 23
e 22 26
e 22 31
e 22 32
e 22 35
e 22 37
e 22 38
e 22 39
e 22 41
e 22 42
e 22 43
e 22 46
e 22 49
e 22 52
e 22 58
e 22 61
e 22 64
e 22 65
e 22 66
e 22 67
e 22 69
e 22 71
e 22 73
e 23 26
e 23 31
e 23 32
e 23 36
e 23 40
e 23 41
e 23 44
e 23 49
e 23 54
e 23 56
e 23 57
e 23 58
e 23 60
e 23 62
e 23 66
e 23 68
e 23 69
e 23 70
e 23 71
e 23 74
e 23 86
e 23 91
e 23 94
e 24 30
e 24 32
e 24 36
e 24 42
e 24 45
e 24 47
e 24 49
e 24 50
e 24 60
e 24 61
e 24 62
e 24 64
e 24 65
e 24 70
e 24 71
e 24 96
e 25 26
e 25 42
e 25 48
e 25 49
e 25 52
e 25 55
e 25 56
e 25 57
e 25 60
e 25 65
e 25 68
e 25 69
e 25 70
e 25 72
e 25 74
e 26 41
e 26 43
e 26 59
e 26 60
e 26 61
e 26 62
e 26 68
e 26 69
e 26 71
e 26 74
e 26 97
e 27 30
e 27 33
e 27 35
e 27 36
e 27 44
e 27 45
e 27 62
e 27 63
e 27 64
e 27 65
e 27 66
e 27 69
e 27 73
e 27 95
e 28 29
e 28 31
e 28 35
e 28 38
e 28 46
e 28 48
e 28 52
e 28 58
e 28 61
e 28 63
e 28 64
e 28 65
e 28 66
e 28 67
e 28 71
e 28 72
e 28 74
e 28 85
e 28 99
e 29 30
e 29 38
e 29 40
e 29 46
e 29 50
e 29 51
e 29 52
e 29 58
e 29 59
e 29 61
e 29 62
e 29 63
e 29 66
e 29 70
e 29 71
e 29 73
e 30 45
e 30 49
e 30 52
e 30 56
e 30 58
e 30 59
e 30 60
e 30 62
e 30 63
e 30 64
e 30 65
e 30 66
e 30 68
e 30 70
e 30 73
e 30 74
e 30 87
e 30 91
e 30 97
e 31 40
e 31 43
e 31 48
e 31 54
e 31 59
e 31 61
e 31 63
e 31 67
e 31 68
e 31 69
e 31 70
e 31 72
e 31 73
e 31 81
e 32 33
e 32 39
e 32 43
e 32 45
e 32 59
e 32 61
e 32 64
e 32 65
e 32 66
e 32 67
e 32 69
e 32 71
e 32 74
e 32 88
e 32 94
e 32 99
e 33 39
e 33 48
e 33 49
e 33 51
e 33 56
e 33 57
e 33 61
e 33 63
e 33 65
e 33 69
e 33 71
e 33 72
e 33 74
e 33 96
e 34 35
e 34 39
e 34 41
e 34 45
e 34 46
e 34 50
e 34 52
e 34 54
e 34 58
e 34 59
e 34 61
e 34 62
e 34 64
e 34 65
e 34 70
e 34 71
e 34 72
e 34 73
e 34 80
e 35 36
e 35 39
e 35 43
e 35 59
e 35 60
e 35 61
e 35 62
e 35 69
e 35 71
e 35 72
e 35 91
e 36 41
e 36 61
e 36 66
e 36 69
e 36 70
e 36 72
e 36 73
e 36 74
e 36 81
e 37 50
e 37 53
e 37 58
e 37 59
e 37 60
e 37 63
e 37 65
e 37 66
e 37 67
e 37 68
e 37 70
e 37 71
e 37 72
e 37 73
e 37 74
e 37 78
e 37 83
e 38 40
e 38 44
e 38 45
e 38 46
e 38 53
e 38 58
e 38 60
e 38 62
e 38 63
e 38 64
e 38 65
e 38 66
e 38 67
e 38 69
e 38 71
e 38 72
e 38 73
e 38 74
e 39 44
e 39 45
e 39 46
e 39 57
e 39 59
e 39 61
e 39 62
e 39 65
e 39 66
e 39 68
e 39 69
e 39 71
e 39 72
e 39 74
e 40 42
e 40 48
e 40 57
e 40 59
e 40 60
e 40 62
e 40 63
e 40 64
e 40 65
e 40 66
e 40 67
e 40 68
e 40 70
e 40 73
e 40 74
e 40 79
e 40 81
e 40 88
e 41 45
e 41 46
e 41 47
e 41 50
e 41 53
e 41 54
e 41 59
e 41 60
e 41 61
e 41 62
e 41 63
e 41 65
e 41 67
e 41 69
e 41 72
e 41 85
e 42 47
e 42 48
e 42 50
e 42 51
e 42 60
e 42 61
e 42 62
e 42 63
e 42 64
e 42 65
e 42 68
e 42 69
e 42 72
e 42 73
e 42 74
e 42 86
e 43 58
e 43 63
e 43 65
e 43 66
e 43 68
e 43 70
e 43 72
e 43 73
e 43 88
e 44 49
e 44 53
e 44 62
e 44 63
e 44 64
e 44 66
e 44 67
e 44 68
e 44 72
e 44 73
e 44 90
e 44 99
e 45 57
e 45 60
e 45 61
e 45 62
e 45 65
e 45 66
e 45 69
e 45 71
e 45 72
e 45 73
e 45 74
e 45 89
e 45 98
e 46 49
e 46 51
e 46 52
e 46 57
e 46 58
e 46 59
e 46 60
e 46 61
e 46 64
e 46 67
e 46 68
e 46 69
e 46 71
e 46 72
e 46 73
e 47 56
e 47 57
e 47 59
e 47 60
e 47 64
e 47 65
e 47 66
e 47 69
e 47 72
e 47 73
e 47 74
e 48 51
e 48 54
e 48 59
e 48 62
e 48 63
e 48 64
e 48 65
e 48 67
e 48 68
e 48 69
e 48 70
e 48 74
e 48 100
e 49 59
e 49 60
e 49 61
e 49 63
e 49 64
e 49 65
e 49 67
e 49 68
e 49 70
e 49 71
e 49 72
e 49 73
e 49 94
e 50 54
e 50 59
e 50 60
e 50 61
e 50 62
e 50 63
e 50 64
e 50 65
e 50 66
e 50 67
e 50 68
e 50 70
e 50 76
e 51 52
e 51 55
e 51 58
e 51 59
e 51 61
e 51 62
e 51 64
e 51 65
e 51 66
e 51 69
e 51 70
e 51 73
e 51 74
e 51 99
e 52 54
e 52 55
e 52 58
e 52 59
e 52 62
e 52 63
e 52 64
e 52 66
e 52 68
e 52 71
e 52 82
e 52 92
e 52 97
e 52 100
e 53 54
e 53 56
e 53 59
e 53 61
e 53 62
e 53 63
e 53 64
e 53 66
e 53 71
e 53 73
e 53 74
e 53 77
e 54 59
e 54 60
e 54 62
e 54 63
e 54 65
e 54 66
e 54 68
e 54 70
e 54 72
e 54 73
e 54 79
e 54 94
e 55 57
e 55 61
e 55 62
e 55 64
e 55 66
e 55 71
e 55 72
e 55 73
e 55 74
e 55 86
e 56 57
e 56 58
e 56 62
e 56 64
e 56 65
e 56 66
e 56 68
e 56 69
e 56 71
e 56 72
e 56 73
e 56 95
e 56 100
e 57 59
e 57 64
e 57 68
e 57 70
e 57 74
e 57 88
e 57 93
e 58 62
e 58 63
e 58 65
e 58 66
e 58 67
e 58 68
e 58 69
e 58 70
e 58 73
e 58 74
e 58 87
e 58 95
e 59 60
e 59 65
e 59 66
e 59 67
e 59 76
e 59 81
e 59 84
e 59 98
e 60 71
e 60 87
e 60 95
e 60 98
e 60 99
e 61 62
e 61 64
e 61 74
e 61 76
e 61 87
e 61 90
e 61 96
e 61 98
e 61 99
e 62 64
e 62 74
e 62 75
e 62 81
e 62 84
e 63 70
e 63 72
e 63 76
e 63 79
e 63 87
e 63 94
e 63 97
e 64 68
e 64 71
e 64 75
e 64 79
e 64 80
e 64 85
e 64 94
e 64 99
e 65 66
e 65 82
e 65 89
e 65 95
e 66 71
e 66 73
e 66 74
e 66 86
e 66 87
e 66 90
e 67 68
e 67 75
e 67 76
e 67 81
e 67 85
e 67 88
e 67 89
e 67 91
e 68 71
e 68 72
e 68 75
e 68 82
e 68 96
e 69 78
e 69 83
e 69 84
e 69 92
e 69 93
e 70 92
e 71 75
e 71 80
e 71 83
e 71 90
e 71 95
e 72 74
e 72 76
e 72 78
e 72 79
e 72 88
e 73 81
e 73 89
e 73 90
e 73 93
e 75 80
e 75 82
e 75 95
e 75 99
e 76 86
e 76 94
e 77 81
e 77 84
e 77 98
e 77 99
e 78 84
e 79 84
e 79 85
e 79 86
e 79 89
e 79 90
e 79 91
e 79 93
e 79 99
e 80 88
e 80 91
e 80 93
e 80 94
e 80 97
e 80 99
e 81 89
e 81 93
e 81 95
e 81 98
e 82 91
e 82 97
e 83 86
e 83 87
e 83 92
e 83 93
e 83 96
e 83 100
e 84 87
e 84 94
e 84 99
e 85 86
e 85 92
e 85 97
e 86 90
e 86 92
e 86 94
e 87 91
e 87 96
e 87 97
e 87 98
e 87 99
e 88 96
e 89 94
e 89 98
e 94 95
e 97 100
